etc/upTests/___simple/set-of-sets/0001.eprime.solution
language ESSENCE' 1.0
$ minion Nodes: 9
$ minion TotalTime: 0.002419
$ Savile Row TotalTime: 0.569
letting x_SetExplicit_SetExplicit be [[0, 1, 2, 3;int(1..4)], 
[0, 1, 2, 4;int(1..4)], 
[1, 2, 3, 9;int(1..4)];int(1..3)]
